70
1 0 28
2 0 2
2 1 41
3 0 54
3 1 3
3 2 58
4 0 51
4 1 55
4 2 29
4 3 55
5 0 35
5 1 49
5 2 41
5 3 40
5 4 23
6 0 31
6 1 9
6 2 26
6 3 40
6 4 32
6 5 51
7 0 15
7 1 15
7 2 8
7 3 46
7 4 45
7 5 20
7 6 56
8 0 29
8 1 19
8 2 35
8 3 31
8 4 23
8 5 27
8 6 33
8 7 51
9 0 17
9 1 41
9 2 34
9 3 52
9 4 56
9 5 1
9 6 57
9 7 33
9 8 25
10 0 10
10 1 8
10 2 49
10 3 53
10 4 20
10 5 47
10 6 52
10 7 27
10 8 13
10 9 34
11 0 10
11 1 7
11 2 38
11 3 44
11 4 20
11 5 53
11 6 38
11 7 34
11 8 56
11 9 51
11 10 9
12 0 47
12 1 39
12 2 18
12 3 2
12 4 11
12 5 12
12 6 30
12 7 4
12 8 1
12 9 21
12 10 1
12 11 58
13 0 9
13 1 50
13 2 1
13 3 41
13 4 1
13 5 44
13 6 17
13 7 28
13 8 19
13 9 36
13 10 12
13 11 36
13 12 48
14 0 3
14 1 11
14 2 41
14 3 16
14 4 45
14 5 58
14 6 49
14 7 8
14 8 45
14 9 43
14 10 8
14 11 3
14 12 57
14 13 9
15 0 25
15 1 55
15 2 25
15 3 56
15 4 11
15 5 13
15 6 12
15 7 6
15 8 47
15 9 42
15 10 19
15 11 10
15 12 56
15 13 53
15 14 21
16 0 23
16 1 33
16 2 52
16 3 38
16 4 4
16 5 36
16 6 10
16 7 16
16 8 4
16 9 2
16 10 53
16 11 58
16 12 6
16 13 52
16 14 28
16 15 17
17 0 37
17 1 16
17 2 27
17 3 41
17 4 42
17 5 9
17 6 21
17 7 14
17 8 11
17 9 58
17 10 30
17 11 51
17 12 51
17 13 36
17 14 16
17 15 57
17 16 54
18 0 38
18 1 19
18 2 21
18 3 15
18 4 13
18 5 35
18 6 20
18 7 46
18 8 33
18 9 17
18 10 4
18 11 56
18 12 30
18 13 48
18 14 41
18 15 41
18 16 22
18 17 53
19 0 28
19 1 49
19 2 16
19 3 56
19 4 47
19 5 43
19 6 19
19 7 26
19 8 31
19 9 18
19 10 4
19 11 2
19 12 27
19 13 2
19 14 52
19 15 39
19 16 29
19 17 39
19 18 37
20 0 47
20 1 11
20 2 26
20 3 21
20 4 26
20 5 19
20 6 5
20 7 13
20 8 42
20 9 56
20 10 7
20 11 40
20 12 21
20 13 6
20 14 7
20 15 36
20 16 55
20 17 50
20 18 50
20 19 12
21 0 3
21 1 48
21 2 37
21 3 16
21 4 34
21 5 44
21 6 6
21 7 49
21 8 47
21 9 17
21 10 29
21 11 58
21 12 10
21 13 53
21 14 58
21 15 1
21 16 37
21 17 24
21 18 36
21 19 49
21 20 11
22 0 40
22 1 57
22 2 58
22 3 45
22 4 33
22 5 42
22 6 33
22 7 54
22 8 7
22 9 26
22 10 5
22 11 37
22 12 20
22 13 29
22 14 9
22 15 21
22 16 31
22 17 54
22 18 15
22 19 7
22 20 26
22 21 27
23 0 5
23 1 19
23 2 14
23 3 19
23 4 29
23 5 26
23 6 50
23 7 12
23 8 33
23 9 46
23 10 58
23 11 44
23 12 38
23 13 14
23 14 12
23 15 23
23 16 26
23 17 21
23 18 40
23 19 21
23 20 6
23 21 20
23 22 29
24 0 6
24 1 17
24 2 51
24 3 47
24 4 41
24 5 41
24 6 39
24 7 50
24 8 50
24 9 58
24 10 20
24 11 8
24 12 17
24 13 43
24 14 51
24 15 47
24 16 9
24 17 30
24 18 48
24 19 11
24 20 26
24 21 10
24 22 4
24 23 23
25 0 33
25 1 15
25 2 41
25 3 45
25 4 30
25 5 40
25 6 19
25 7 5
25 8 23
25 9 32
25 10 57
25 11 31
25 12 19
25 13 15
25 14 18
25 15 15
25 16 46
25 17 44
25 18 50
25 19 27
25 20 56
25 21 23
25 22 32
25 23 35
25 24 35
26 0 26
26 1 26
26 2 20
26 3 50
26 4 50
26 5 55
26 6 7
26 7 34
26 8 14
26 9 33
26 10 21
26 11 10
26 12 20
26 13 55
26 14 53
26 15 14
26 16 42
26 17 54
26 18 22
26 19 28
26 20 11
26 21 49
26 22 47
26 23 20
26 24 1
26 25 16
27 0 38
27 1 43
27 2 22
27 3 47
27 4 29
27 5 40
27 6 23
27 7 48
27 8 4
27 9 35
27 10 33
27 11 6
27 12 38
27 13 43
27 14 36
27 15 53
27 16 42
27 17 54
27 18 7
27 19 50
27 20 35
27 21 35
27 22 14
27 23 35
27 24 15
27 25 46
27 26 31
28 0 12
28 1 50
28 2 39
28 3 41
28 4 48
28 5 21
28 6 31
28 7 37
28 8 56
28 9 19
28 10 40
28 11 20
28 12 20
28 13 4
28 14 21
28 15 13
28 16 28
28 17 17
28 18 34
28 19 11
28 20 6
28 21 17
28 22 1
28 23 27
28 24 14
28 25 4
28 26 35
28 27 46
29 0 38
29 1 5
29 2 1
29 3 48
29 4 38
29 5 29
29 6 9
29 7 38
29 8 51
29 9 5
29 10 52
29 11 43
29 12 20
29 13 5
29 14 9
29 15 47
29 16 40
29 17 47
29 18 57
29 19 34
29 20 50
29 21 53
29 22 56
29 23 58
29 24 11
29 25 6
29 26 21
29 27 42
29 28 53
30 0 19
30 1 45
30 2 56
30 3 36
30 4 20
30 5 10
30 6 42
30 7 46
30 8 19
30 9 38
30 10 19
30 11 53
30 12 51
30 13 10
30 14 29
30 15 29
30 16 37
30 17 7
30 18 38
30 19 5
30 20 16
30 21 41
30 22 51
30 23 4
30 24 39
30 25 13
30 26 3
30 27 57
30 28 36
30 29 45
31 0 53
31 1 28
31 2 2
31 3 9
31 4 54
31 5 8
31 6 49
31 7 40
31 8 38
31 9 53
31 10 57
31 11 33
31 12 21
31 13 49
31 14 1
31 15 40
31 16 43
31 17 24
31 18 22
31 19 12
31 20 31
31 21 20
31 22 27
31 23 13
31 24 24
31 25 4
31 26 38
31 27 20
31 28 49
31 29 14
31 30 17
32 0 8
32 1 16
32 2 31
32 3 13
32 4 30
32 5 7
32 6 3
32 7 18
32 8 36
32 9 27
32 10 57
32 11 53
32 12 1
32 13 21
32 14 5
32 15 31
32 16 53
32 17 50
32 18 33
32 19 52
32 20 47
32 21 44
32 22 7
32 23 13
32 24 53
32 25 17
32 26 10
32 27 33
32 28 8
32 29 10
32 30 46
32 31 13
33 0 30
33 1 58
33 2 44
33 3 54
33 4 24
33 5 46
33 6 36
33 7 1
33 8 41
33 9 10
33 10 53
33 11 56
33 12 58
33 13 24
33 14 40
33 15 2
33 16 32
33 17 28
33 18 8
33 19 34
33 20 15
33 21 45
33 22 3
33 23 43
33 24 58
33 25 1
33 26 9
33 27 18
33 28 21
33 29 38
33 30 43
33 31 51
33 32 20
34 0 51
34 1 5
34 2 47
34 3 26
34 4 47
34 5 35
34 6 29
34 7 35
34 8 26
34 9 39
34 10 4
34 11 33
34 12 49
34 13 33
34 14 14
34 15 45
34 16 12
34 17 8
34 18 18
34 19 53
34 20 56
34 21 49
34 22 17
34 23 35
34 24 9
34 25 26
34 26 43
34 27 51
34 28 27
34 29 35
34 30 40
34 31 30
34 32 55
34 33 55
35 0 51
35 1 21
35 2 11
35 3 28
35 4 13
35 5 3
35 6 26
35 7 24
35 8 49
35 9 56
35 10 50
35 11 36
35 12 41
35 13 18
35 14 10
35 15 37
35 16 6
35 17 25
35 18 12
35 19 31
35 20 52
35 21 2
35 22 4
35 23 16
35 24 12
35 25 48
35 26 56
35 27 26
35 28 41
35 29 38
35 30 6
35 31 17
35 32 7
35 33 11
35 34 49
36 0 35
36 1 9
36 2 54
36 3 19
36 4 41
36 5 21
36 6 46
36 7 9
36 8 52
36 9 25
36 10 38
36 11 43
36 12 47
36 13 47
36 14 47
36 15 33
36 16 32
36 17 54
36 18 51
36 19 26
36 20 46
36 21 20
36 22 48
36 23 23
36 24 4
36 25 20
36 26 10
36 27 49
36 28 49
36 29 7
36 30 28
36 31 11
36 32 16
36 33 29
36 34 32
36 35 2
37 0 36
37 1 39
37 2 8
37 3 37
37 4 42
37 5 32
37 6 12
37 7 9
37 8 10
37 9 40
37 10 37
37 11 55
37 12 53
37 13 48
37 14 8
37 15 3
37 16 16
37 17 35
37 18 58
37 19 28
37 20 7
37 21 51
37 22 29
37 23 49
37 24 12
37 25 44
37 26 22
37 27 44
37 28 2
37 29 19
37 30 40
37 31 47
37 32 54
37 33 33
37 34 45
37 35 1
37 36 51
38 0 1
38 1 25
38 2 12
38 3 43
38 4 10
38 5 10
38 6 44
38 7 23
38 8 41
38 9 26
38 10 21
38 11 16
38 12 57
38 13 16
38 14 4
38 15 18
38 16 14
38 17 9
38 18 39
38 19 2
38 20 50
38 21 46
38 22 58
38 23 40
38 24 13
38 25 47
38 26 58
38 27 13
38 28 10
38 29 17
38 30 29
38 31 45
38 32 8
38 33 56
38 34 53
38 35 6
38 36 22
38 37 30
39 0 32
39 1 40
39 2 3
39 3 10
39 4 11
39 5 43
39 6 38
39 7 26
39 8 51
39 9 31
39 10 37
39 11 56
39 12 23
39 13 13
39 14 49
39 15 35
39 16 44
39 17 32
39 18 56
39 19 15
39 20 34
39 21 7
39 22 36
39 23 14
39 24 25
39 25 34
39 26 22
39 27 51
39 28 4
39 29 41
39 30 55
39 31 50
39 32 41
39 33 29
39 34 18
39 35 35
39 36 23
39 37 14
39 38 37
40 0 22
40 1 5
40 2 1
40 3 11
40 4 13
40 5 17
40 6 57
40 7 23
40 8 44
40 9 4
40 10 33
40 11 8
40 12 17
40 13 55
40 14 21
40 15 42
40 16 19
40 17 57
40 18 23
40 19 55
40 20 42
40 21 4
40 22 50
40 23 30
40 24 28
40 25 3
40 26 45
40 27 38
40 28 3
40 29 29
40 30 58
40 31 27
40 32 8
40 33 58
40 34 30
40 35 33
40 36 48
40 37 27
40 38 4
40 39 5
41 0 27
41 1 43
41 2 27
41 3 50
41 4 22
41 5 23
41 6 2
41 7 36
41 8 30
41 9 44
41 10 22
41 11 24
41 12 43
41 13 23
41 14 2
41 15 28
41 16 2
41 17 32
41 18 49
41 19 30
41 20 7
41 21 19
41 22 11
41 23 45
41 24 9
41 25 40
41 26 24
41 27 41
41 28 24
41 29 29
41 30 54
41 31 3
41 32 20
41 33 2
41 34 53
41 35 20
41 36 13
41 37 55
41 38 38
41 39 23
41 40 15
42 0 28
42 1 55
42 2 26
42 3 1
42 4 23
42 5 55
42 6 40
42 7 37
42 8 53
42 9 30
42 10 21
42 11 43
42 12 41
42 13 1
42 14 2
42 15 23
42 16 41
42 17 53
42 18 24
42 19 32
42 20 8
42 21 48
42 22 40
42 23 34
42 24 19
42 25 41
42 26 37
42 27 3
42 28 54
42 29 23
42 30 48
42 31 32
42 32 39
42 33 52
42 34 26
42 35 39
42 36 51
42 37 40
42 38 55
42 39 4
42 40 20
42 41 18
43 0 13
43 1 24
43 2 8
43 3 51
43 4 12
43 5 28
43 6 38
43 7 13
43 8 3
43 9 51
43 10 53
43 11 2
43 12 13
43 13 4
43 14 43
43 15 50
43 16 15
43 17 39
43 18 36
43 19 11
43 20 54
43 21 13
43 22 13
43 23 33
43 24 9
43 25 52
43 26 46
43 27 57
43 28 48
43 29 52
43 30 4
43 31 35
43 32 28
43 33 17
43 34 21
43 35 31
43 36 18
43 37 53
43 38 54
43 39 36
43 40 10
43 41 16
43 42 49
44 0 54
44 1 25
44 2 33
44 3 48
44 4 51
44 5 48
44 6 37
44 7 55
44 8 52
44 9 40
44 10 55
44 11 10
44 12 2
44 13 20
44 14 15
44 15 51
44 16 13
44 17 14
44 18 36
44 19 6
44 20 43
44 21 24
44 22 24
44 23 6
44 24 16
44 25 11
44 26 9
44 27 20
44 28 41
44 29 12
44 30 57
44 31 4
44 32 14
44 33 17
44 34 52
44 35 13
44 36 44
44 37 41
44 38 27
44 39 6
44 40 28
44 41 41
44 42 29
44 43 14
45 0 12
45 1 28
45 2 45
45 3 17
45 4 40
45 5 8
45 6 50
45 7 50
45 8 11
45 9 54
45 10 45
45 11 41
45 12 1
45 13 7
45 14 47
45 15 42
45 16 30
45 17 4
45 18 48
45 19 28
45 20 7
45 21 37
45 22 1
45 23 15
45 24 15
45 25 44
45 26 43
45 27 13
45 28 10
45 29 48
45 30 51
45 31 34
45 32 58
45 33 22
45 34 3
45 35 21
45 36 42
45 37 7
45 38 32
45 39 46
45 40 46
45 41 12
45 42 35
45 43 45
45 44 31
46 0 25
46 1 46
46 2 40
46 3 38
46 4 51
46 5 16
46 6 24
46 7 21
46 8 44
46 9 17
46 10 41
46 11 2
46 12 50
46 13 17
46 14 1
46 15 34
46 16 47
46 17 28
46 18 23
46 19 32
46 20 50
46 21 30
46 22 5
46 23 49
46 24 8
46 25 55
46 26 7
46 27 46
46 28 16
46 29 22
46 30 48
46 31 35
46 32 14
46 33 29
46 34 11
46 35 31
46 36 33
46 37 41
46 38 15
46 39 29
46 40 8
46 41 30
46 42 20
46 43 44
46 44 38
46 45 20
47 0 29
47 1 51
47 2 58
47 3 11
47 4 34
47 5 15
47 6 23
47 7 30
47 8 55
47 9 54
47 10 6
47 11 57
47 12 21
47 13 6
47 14 46
47 15 4
47 16 56
47 17 5
47 18 1
47 19 53
47 20 14
47 21 24
47 22 31
47 23 29
47 24 13
47 25 2
47 26 5
47 27 13
47 28 37
47 29 18
47 30 12
47 31 37
47 32 30
47 33 55
47 34 56
47 35 38
47 36 23
47 37 5
47 38 43
47 39 27
47 40 27
47 41 20
47 42 35
47 43 15
47 44 7
47 45 20
47 46 36
48 0 17
48 1 30
48 2 10
48 3 20
48 4 48
48 5 29
48 6 37
48 7 20
48 8 9
48 9 48
48 10 30
48 11 21
48 12 39
48 13 27
48 14 54
48 15 35
48 16 39
48 17 32
48 18 33
48 19 9
48 20 19
48 21 7
48 22 33
48 23 37
48 24 2
48 25 53
48 26 8
48 27 29
48 28 18
48 29 38
48 30 9
48 31 29
48 32 24
48 33 42
48 34 29
48 35 28
48 36 52
48 37 2
48 38 46
48 39 20
48 40 31
48 41 42
48 42 44
48 43 50
48 44 10
48 45 39
48 46 21
48 47 37
49 0 46
49 1 15
49 2 30
49 3 33
49 4 39
49 5 42
49 6 5
49 7 27
49 8 19
49 9 52
49 10 9
49 11 37
49 12 39
49 13 34
49 14 11
49 15 41
49 16 46
49 17 20
49 18 18
49 19 3
49 20 56
49 21 52
49 22 48
49 23 20
49 24 58
49 25 12
49 26 55
49 27 14
49 28 4
49 29 45
49 30 58
49 31 29
49 32 19
49 33 11
49 34 46
49 35 24
49 36 20
49 37 29
49 38 55
49 39 51
49 40 56
49 41 8
49 42 15
49 43 26
49 44 8
49 45 29
49 46 23
49 47 43
49 48 48
50 0 21
50 1 35
50 2 43
50 3 58
50 4 46
50 5 12
50 6 13
50 7 30
50 8 57
50 9 49
50 10 38
50 11 5
50 12 36
50 13 6
50 14 22
50 15 49
50 16 24
50 17 41
50 18 42
50 19 16
50 20 43
50 21 35
50 22 27
50 23 18
50 24 56
50 25 21
50 26 36
50 27 47
50 28 39
50 29 4
50 30 53
50 31 12
50 32 37
50 33 19
50 34 52
50 35 28
50 36 42
50 37 6
50 38 40
50 39 50
50 40 45
50 41 53
50 42 16
50 43 18
50 44 4
50 45 49
50 46 9
50 47 11
50 48 12
50 49 5
51 0 4
51 1 54
51 2 21
51 3 41
51 4 22
51 5 33
51 6 9
51 7 44
51 8 48
51 9 20
51 10 38
51 11 7
51 12 4
51 13 2
51 14 29
51 15 26
51 16 10
51 17 20
51 18 41
51 19 32
51 20 48
51 21 42
51 22 57
51 23 27
51 24 6
51 25 26
51 26 32
51 27 35
51 28 1
51 29 42
51 30 39
51 31 23
51 32 9
51 33 21
51 34 35
51 35 24
51 36 3
51 37 58
51 38 23
51 39 7
51 40 14
51 41 2
51 42 58
51 43 7
51 44 11
51 45 55
51 46 28
51 47 14
51 48 16
51 49 19
51 50 22
52 0 31
52 1 46
52 2 55
52 3 20
52 4 51
52 5 28
52 6 55
52 7 49
52 8 57
52 9 11
52 10 25
52 11 25
52 12 53
52 13 32
52 14 24
52 15 38
52 16 25
52 17 48
52 18 2
52 19 8
52 20 43
52 21 20
52 22 3
52 23 50
52 24 32
52 25 5
52 26 20
52 27 56
52 28 17
52 29 31
52 30 55
52 31 36
52 32 14
52 33 29
52 34 36
52 35 34
52 36 38
52 37 52
52 38 11
52 39 39
52 40 5
52 41 29
52 42 7
52 43 13
52 44 52
52 45 17
52 46 52
52 47 19
52 48 10
52 49 34
52 50 26
52 51 4
53 0 39
53 1 27
53 2 28
53 3 39
53 4 51
53 5 4
53 6 27
53 7 45
53 8 46
53 9 35
53 10 46
53 11 19
53 12 10
53 13 15
53 14 13
53 15 5
53 16 38
53 17 27
53 18 35
53 19 20
53 20 34
53 21 7
53 22 32
53 23 39
53 24 43
53 25 30
53 26 42
53 27 38
53 28 56
53 29 26
53 30 30
53 31 52
53 32 51
53 33 29
53 34 35
53 35 45
53 36 47
53 37 33
53 38 35
53 39 51
53 40 35
53 41 3
53 42 37
53 43 54
53 44 15
53 45 22
53 46 49
53 47 31
53 48 13
53 49 43
53 50 47
53 51 25
53 52 55
54 0 8
54 1 34
54 2 47
54 3 3
54 4 11
54 5 1
54 6 40
54 7 12
54 8 22
54 9 8
54 10 56
54 11 22
54 12 32
54 13 57
54 14 9
54 15 19
54 16 44
54 17 14
54 18 6
54 19 26
54 20 7
54 21 34
54 22 8
54 23 7
54 24 54
54 25 17
54 26 33
54 27 21
54 28 18
54 29 48
54 30 27
54 31 30
54 32 16
54 33 21
54 34 46
54 35 56
54 36 42
54 37 23
54 38 57
54 39 27
54 40 54
54 41 5
54 42 51
54 43 24
54 44 34
54 45 36
54 46 1
54 47 54
54 48 19
54 49 13
54 50 37
54 51 4
54 52 18
54 53 12
55 0 33
55 1 6
55 2 17
55 3 15
55 4 27
55 5 51
55 6 25
55 7 12
55 8 28
55 9 41
55 10 32
55 11 26
55 12 36
55 13 7
55 14 36
55 15 57
55 16 21
55 17 41
55 18 44
55 19 58
55 20 13
55 21 37
55 22 4
55 23 9
55 24 27
55 25 46
55 26 1
55 27 51
55 28 49
55 29 21
55 30 2
55 31 43
55 32 25
55 33 30
55 34 52
55 35 28
55 36 44
55 37 30
55 38 41
55 39 12
55 40 48
55 41 13
55 42 52
55 43 57
55 44 38
55 45 56
55 46 8
55 47 37
55 48 31
55 49 21
55 50 25
55 51 43
55 52 10
55 53 12
55 54 39
56 0 56
56 1 10
56 2 49
56 3 20
56 4 12
56 5 49
56 6 33
56 7 20
56 8 13
56 9 7
56 10 45
56 11 47
56 12 51
56 13 53
56 14 9
56 15 44
56 16 51
56 17 38
56 18 4
56 19 46
56 20 49
56 21 23
56 22 49
56 23 57
56 24 7
56 25 45
56 26 33
56 27 57
56 28 22
56 29 8
56 30 57
56 31 51
56 32 22
56 33 1
56 34 2
56 35 14
56 36 1
56 37 10
56 38 24
56 39 28
56 40 40
56 41 53
56 42 30
56 43 26
56 44 44
56 45 58
56 46 55
56 47 50
56 48 19
56 49 43
56 50 50
56 51 1
56 52 49
56 53 6
56 54 7
56 55 52
57 0 13
57 1 34
57 2 19
57 3 35
57 4 26
57 5 28
57 6 41
57 7 38
57 8 44
57 9 43
57 10 22
57 11 39
57 12 4
57 13 25
57 14 15
57 15 36
57 16 13
57 17 39
57 18 48
57 19 13
57 20 53
57 21 17
57 22 25
57 23 35
57 24 44
57 25 58
57 26 50
57 27 12
57 28 44
57 29 23
57 30 24
57 31 22
57 32 54
57 33 16
57 34 32
57 35 18
57 36 3
57 37 6
57 38 3
57 39 7
57 40 42
57 41 38
57 42 12
57 43 23
57 44 18
57 45 57
57 46 14
57 47 28
57 48 13
57 49 22
57 50 19
57 51 9
57 52 47
57 53 58
57 54 46
57 55 30
57 56 43
58 0 13
58 1 13
58 2 33
58 3 39
58 4 2
58 5 40
58 6 18
58 7 34
58 8 41
58 9 20
58 10 34
58 11 3
58 12 10
58 13 54
58 14 11
58 15 18
58 16 12
58 17 16
58 18 28
58 19 53
58 20 33
58 21 26
58 22 1
58 23 30
58 24 53
58 25 20
58 26 33
58 27 43
58 28 52
58 29 52
58 30 48
58 31 16
58 32 43
58 33 5
58 34 30
58 35 55
58 36 23
58 37 29
58 38 33
58 39 2
58 40 54
58 41 6
58 42 1
58 43 14
58 44 41
58 45 31
58 46 13
58 47 3
58 48 42
58 49 52
58 50 5
58 51 31
58 52 55
58 53 6
58 54 58
58 55 31
58 56 38
58 57 7
59 0 44
59 1 57
59 2 53
59 3 33
59 4 58
59 5 1
59 6 58
59 7 44
59 8 20
59 9 30
59 10 19
59 11 58
59 12 47
59 13 46
59 14 47
59 15 39
59 16 57
59 17 23
59 18 15
59 19 30
59 20 43
59 21 14
59 22 57
59 23 9
59 24 3
59 25 23
59 26 38
59 27 40
59 28 46
59 29 22
59 30 7
59 31 53
59 32 36
59 33 55
59 34 52
59 35 37
59 36 24
59 37 23
59 38 19
59 39 51
59 40 48
59 41 57
59 42 38
59 43 14
59 44 57
59 45 9
59 46 41
59 47 29
59 48 17
59 49 34
59 50 35
59 51 12
59 52 56
59 53 57
59 54 57
59 55 3
59 56 31
59 57 28
59 58 29
60 0 5
60 1 53
60 2 8
60 3 40
60 4 10
60 5 17
60 6 20
60 7 12
60 8 8
60 9 6
60 10 43
60 11 28
60 12 32
60 13 55
60 14 43
60 15 53
60 16 15
60 17 4
60 18 27
60 19 7
60 20 48
60 21 51
60 22 12
60 23 20
60 24 40
60 25 33
60 26 23
60 27 27
60 28 34
60 29 43
60 30 41
60 31 23
60 32 44
60 33 40
60 34 51
60 35 8
60 36 40
60 37 50
60 38 18
60 39 23
60 40 29
60 41 19
60 42 31
60 43 23
60 44 31
60 45 32
60 46 14
60 47 56
60 48 14
60 49 41
60 50 9
60 51 21
60 52 47
60 53 23
60 54 12
60 55 37
60 56 57
60 57 19
60 58 48
60 59 38
61 0 2
61 1 30
61 2 3
61 3 49
61 4 53
61 5 58
61 6 55
61 7 27
61 8 44
61 9 57
61 10 35
61 11 47
61 12 39
61 13 15
61 14 27
61 15 45
61 16 21
61 17 53
61 18 1
61 19 40
61 20 40
61 21 50
61 22 54
61 23 11
61 24 38
61 25 51
61 26 10
61 27 43
61 28 13
61 29 42
61 30 51
61 31 54
61 32 1
61 33 3
61 34 38
61 35 43
61 36 37
61 37 48
61 38 1
61 39 23
61 40 19
61 41 31
61 42 43
61 43 19
61 44 16
61 45 36
61 46 37
61 47 46
61 48 31
61 49 29
61 50 54
61 51 35
61 52 33
61 53 29
61 54 57
61 55 28
61 56 48
61 57 27
61 58 34
61 59 45
61 60 47
62 0 39
62 1 40
62 2 25
62 3 38
62 4 27
62 5 8
62 6 55
62 7 3
62 8 57
62 9 16
62 10 5
62 11 9
62 12 17
62 13 10
62 14 57
62 15 42
62 16 21
62 17 43
62 18 41
62 19 36
62 20 32
62 21 17
62 22 34
62 23 27
62 24 11
62 25 4
62 26 52
62 27 12
62 28 58
62 29 53
62 30 19
62 31 32
62 32 4
62 33 1
62 34 40
62 35 45
62 36 33
62 37 33
62 38 54
62 39 29
62 40 43
62 41 36
62 42 50
62 43 58
62 44 34
62 45 23
62 46 33
62 47 29
62 48 20
62 49 9
62 50 32
62 51 27
62 52 47
62 53 3
62 54 25
62 55 44
62 56 47
62 57 44
62 58 30
62 59 10
62 60 41
62 61 42
63 0 6
63 1 46
63 2 34
63 3 24
63 4 24
63 5 3
63 6 24
63 7 43
63 8 29
63 9 40
63 10 28
63 11 44
63 12 41
63 13 41
63 14 53
63 15 9
63 16 23
63 17 9
63 18 53
63 19 8
63 20 45
63 21 20
63 22 5
63 23 51
63 24 33
63 25 43
63 26 10
63 27 26
63 28 27
63 29 50
63 30 48
63 31 56
63 32 38
63 33 37
63 34 13
63 35 23
63 36 56
63 37 7
63 38 58
63 39 19
63 40 24
63 41 46
63 42 23
63 43 24
63 44 6
63 45 25
63 46 40
63 47 34
63 48 49
63 49 35
63 50 37
63 51 57
63 52 53
63 53 5
63 54 58
63 55 24
63 56 42
63 57 46
63 58 42
63 59 39
63 60 39
63 61 14
63 62 16
64 0 57
64 1 52
64 2 3
64 3 1
64 4 34
64 5 10
64 6 47
64 7 56
64 8 54
64 9 1
64 10 41
64 11 4
64 12 26
64 13 32
64 14 45
64 15 46
64 16 20
64 17 7
64 18 10
64 19 53
64 20 11
64 21 12
64 22 15
64 23 33
64 24 21
64 25 33
64 26 34
64 27 8
64 28 11
64 29 23
64 30 16
64 31 19
64 32 47
64 33 53
64 34 4
64 35 37
64 36 49
64 37 52
64 38 13
64 39 9
64 40 22
64 41 54
64 42 7
64 43 11
64 44 58
64 45 16
64 46 52
64 47 17
64 48 46
64 49 46
64 50 49
64 51 38
64 52 33
64 53 18
64 54 18
64 55 54
64 56 38
64 57 21
64 58 9
64 59 1
64 60 6
64 61 1
64 62 9
64 63 16
65 0 12
65 1 30
65 2 50
65 3 8
65 4 30
65 5 43
65 6 54
65 7 21
65 8 46
65 9 42
65 10 42
65 11 12
65 12 41
65 13 53
65 14 42
65 15 5
65 16 11
65 17 34
65 18 19
65 19 53
65 20 27
65 21 54
65 22 43
65 23 54
65 24 37
65 25 34
65 26 7
65 27 32
65 28 5
65 29 33
65 30 21
65 31 2
65 32 52
65 33 54
65 34 1
65 35 31
65 36 27
65 37 37
65 38 8
65 39 55
65 40 44
65 41 30
65 42 20
65 43 54
65 44 48
65 45 6
65 46 7
65 47 31
65 48 42
65 49 53
65 50 18
65 51 35
65 52 49
65 53 24
65 54 13
65 55 48
65 56 11
65 57 39
65 58 45
65 59 8
65 60 28
65 61 27
65 62 51
65 63 50
65 64 38
66 0 27
66 1 33
66 2 27
66 3 18
66 4 34
66 5 46
66 6 27
66 7 29
66 8 38
66 9 5
66 10 16
66 11 21
66 12 11
66 13 58
66 14 10
66 15 49
66 16 36
66 17 31
66 18 3
66 19 29
66 20 31
66 21 46
66 22 54
66 23 54
66 24 34
66 25 20
66 26 5
66 27 31
66 28 9
66 29 19
66 30 54
66 31 32
66 32 9
66 33 14
66 34 53
66 35 33
66 36 15
66 37 48
66 38 22
66 39 1
66 40 24
66 41 29
66 42 48
66 43 14
66 44 50
66 45 26
66 46 18
66 47 14
66 48 35
66 49 56
66 50 43
66 51 12
66 52 3
66 53 1
66 54 15
66 55 17
66 56 30
66 57 2
66 58 12
66 59 25
66 60 43
66 61 7
66 62 6
66 63 1
66 64 25
66 65 33
67 0 46
67 1 46
67 2 37
67 3 11
67 4 40
67 5 16
67 6 33
67 7 47
67 8 34
67 9 30
67 10 48
67 11 58
67 12 41
67 13 9
67 14 27
67 15 58
67 16 54
67 17 49
67 18 21
67 19 6
67 20 12
67 21 44
67 22 32
67 23 16
67 24 31
67 25 32
67 26 38
67 27 38
67 28 27
67 29 4
67 30 41
67 31 5
67 32 37
67 33 43
67 34 44
67 35 8
67 36 34
67 37 17
67 38 9
67 39 52
67 40 31
67 41 26
67 42 25
67 43 40
67 44 13
67 45 23
67 46 10
67 47 33
67 48 21
67 49 34
67 50 15
67 51 6
67 52 9
67 53 57
67 54 17
67 55 47
67 56 56
67 57 35
67 58 21
67 59 22
67 60 5
67 61 24
67 62 10
67 63 24
67 64 12
67 65 30
67 66 15
68 0 18
68 1 7
68 2 23
68 3 58
68 4 38
68 5 21
68 6 41
68 7 21
68 8 14
68 9 30
68 10 36
68 11 42
68 12 18
68 13 46
68 14 3
68 15 25
68 16 58
68 17 13
68 18 55
68 19 30
68 20 51
68 21 51
68 22 45
68 23 53
68 24 5
68 25 35
68 26 39
68 27 18
68 28 29
68 29 16
68 30 45
68 31 8
68 32 51
68 33 47
68 34 17
68 35 31
68 36 1
68 37 5
68 38 30
68 39 14
68 40 13
68 41 36
68 42 25
68 43 45
68 44 43
68 45 46
68 46 24
68 47 16
68 48 56
68 49 48
68 50 8
68 51 50
68 52 24
68 53 51
68 54 51
68 55 41
68 56 54
68 57 51
68 58 25
68 59 37
68 60 41
68 61 6
68 62 48
68 63 17
68 64 43
68 65 22
68 66 14
68 67 15
69 0 7
69 1 44
69 2 48
69 3 22
69 4 11
69 5 41
69 6 28
69 7 22
69 8 23
69 9 20
69 10 37
69 11 25
69 12 26
69 13 21
69 14 38
69 15 28
69 16 6
69 17 18
69 18 29
69 19 4
69 20 39
69 21 43
69 22 30
69 23 19
69 24 1
69 25 14
69 26 46
69 27 17
69 28 40
69 29 22
69 30 14
69 31 35
69 32 32
69 33 58
69 34 25
69 35 19
69 36 53
69 37 35
69 38 43
69 39 29
69 40 56
69 41 26
69 42 33
69 43 32
69 44 18
69 45 52
69 46 25
69 47 38
69 48 37
69 49 4
69 50 10
69 51 56
69 52 47
69 53 31
69 54 3
69 55 51
69 56 8
69 57 7
69 58 45
69 59 57
69 60 29
69 61 45
69 62 11
69 63 24
69 64 22
69 65 48
69 66 8
69 67 35
69 68 23
